100
32
17
19
9
11
7
9
8
1
11
25
30
7
16
8
31
6
14
8
2
3
12
13
14
30
17
30
26
20
7
19
29
12
19
23
9
30
13
10
32
26
10
1
30
32
16
12
8
30
24
8
20
3
2
3
20
13
2
1
25
1
11
20
20
15
24
24
18
10
1
2
21
24
11
9
10
22
15
22
3
7
28
5
2
7
2
6
18
10
5
18
27
8
2
2
22
13
5
8
1
4